problems/csplib-prob015/SchursLemma-models/noch/O2/lingeling/model_1_2-7-9-solution000001.eprime-solution
language ESSENCE' 1.0

letting boxes_PartitionAsSet_ExplicitR6_ExplicitVarSizeWithDummy be
        [[1, 10, 10, 10, 10, 10, 10, 10, 10; int(1..9)], [2, 10, 10, 10, 10, 10, 10, 10, 10; int(1..9)],
         [3, 10, 10, 10, 10, 10, 10, 10, 10; int(1..9)], [4, 6, 9, 10, 10, 10, 10, 10, 10; int(1..9)],
         [5, 10, 10, 10, 10, 10, 10, 10, 10; int(1..9)], [7, 10, 10, 10, 10, 10, 10, 10, 10; int(1..9)],
         [8, 10, 10, 10, 10, 10, 10, 10, 10; int(1..9)]; int(1..7)]
