problems/csplib-prob015/SchursLemma-models/noch/O2/lingeling/model_1_2-7-9-solution000001.solution
language Essence 1.3

letting boxes be partition({1}, {2}, {3}, {4, 6, 9}, {5}, {7}, {8})
